Traveling Salesman Problem/TSP_generados/Aleatorio1621103382_12.tsp
NAME: Aleatorio1621103382_12.tsp
COMMENT: Randomly generated scenario
TYPE: TSP
DIMENSION: 12
EDGE_WEIGHT_TYPE: ATT
NODE_COORD_SECTION
1 47.34 42.73
2 32.23 30.77
3 42.05 44.39
4 10.7 44.4
5 5.66 8.56
6 3.93 34.47
7 27.38 40.25
8 15.8 31.98
9 25.67 34.48
10 0.95 42.21
11 41.33 19.32
12 23.12 6.36
