Traveling Salesman Problem/TSP_generados/Aleatorio1621103382_12.opt.tour
NAME: Aleatorio1621103382_12.opt.tour
COMMENT: Optimal solution for Aleatorio1621103382_12 (168.51318708380074)
TYPE: TOUR
DIMENSION: 12
TOUR_SECTION
1 2 11 12 5 6 10 4 8 9 7 3
-1
EOF
